NAME : in_house_8_24
TYPE : TSP
DIMENSION : 8
EDGE_WEIGHT_TYPE : EXPLICIT
EDGE_WEIGHT_FORMAT : UPPER_ROW
COMMENT : INVERSION_SHIFT=2
EDGE_WEIGHT_SECTION
59
52
39
55
2
38
21
16
33
55
18
56
54
39
60
13
53
59
54
6
29
36
34
48
6
11
60
28
